predicate array_int_element_offset(var int: idx,array [int] of var int: x,var int: c,int: offset);
predicate array_var_int_element_offset(var int: idx,array [int] of var int: x,var int: c,int: offset);
array [1..416] of int: X_INTRODUCED_109_ = [1,1,1,1,1,1,1,1,2,2,2,2,2,2,2,2,3,3,3,3,3,3,3,3,4,4,4,4,4,4,4,4,5,5,5,5,5,5,5,5,6,6,6,6,6,6,6,6,7,7,7,7,7,7,7,7,8,8,8,8,8,8,8,8,9,9,9,9,9,9,9,9,10,10,10,10,10,10,10,10,11,11,11,11,11,11,11,11,12,12,12,12,12,12,12,12,13,13,13,13,13,13,13,13,14,14,14,14,14,14,14,14,15,15,15,15,15,15,15,15,16,16,16,16,16,16,16,16,17,17,17,17,17,17,17,17,18,18,18,18,18,18,18,18,19,19,19,19,19,19,19,19,20,20,20,20,20,20,20,20,21,21,21,21,21,21,21,21,22,22,22,22,22,22,22,22,23,23,23,23,23,23,23,23,24,24,24,24,24,24,24,24,25,25,25,25,25,25,25,25,26,26,26,26,26,26,26,26,27,27,27,27,27,27,27,27,28,28,28,28,28,28,28,28,29,29,29,29,29,29,29,29,30,30,30,30,30,30,30,30,31,31,31,31,31,31,31,31,32,32,32,32,32,32,32,32,33,33,33,33,33,33,33,33,34,34,34,34,34,34,34,34,35,35,35,35,35,35,35,35,36,36,36,36,36,36,36,36,37,37,37,37,37,37,37,37,38,38,38,38,38,38,38,38,39,39,39,39,39,39,39,39,40,40,40,40,40,40,40,40,41,41,41,41,41,41,41,41,42,42,42,42,42,42,42,42,43,43,43,43,43,43,43,43,44,44,44,44,44,44,44,44,45,45,45,45,45,45,45,45,46,46,46,46,46,46,46,46,47,47,47,47,47,47,47,47,48,48,48,48,48,48,48,48,49,49,49,49,49,49,49,49,50,50,50,50,50,50,50,50,51,51,51,51,51,51,51,51,52,52,52,52,52,52,52,52];
array [1..416] of int: X_INTRODUCED_111_ = [2,13,15,26,28,39,41,52,1,3,14,16,27,29,40,42,2,4,15,17,28,30,41,43,3,5,16,18,29,31,42,44,4,6,17,19,30,32,43,45,5,7,18,20,31,33,44,46,6,8,19,21,32,34,45,47,7,9,20,22,33,35,46,48,8,10,21,23,34,36,47,49,9,11,22,24,35,37,48,50,10,12,23,25,36,38,49,51,11,13,24,26,37,39,50,52,1,12,14,25,27,38,40,51,2,13,15,26,28,39,41,52,1,3,14,16,27,29,40,42,2,4,15,17,28,30,41,43,3,5,16,18,29,31,42,44,4,6,17,19,30,32,43,45,5,7,18,20,31,33,44,46,6,8,19,21,32,34,45,47,7,9,20,22,33,35,46,48,8,10,21,23,34,36,47,49,9,11,22,24,35,37,48,50,10,12,23,25,36,38,49,51,11,13,24,26,37,39,50,52,1,12,14,25,27,38,40,51,2,13,15,26,28,39,41,52,1,3,14,16,27,29,40,42,2,4,15,17,28,30,41,43,3,5,16,18,29,31,42,44,4,6,17,19,30,32,43,45,5,7,18,20,31,33,44,46,6,8,19,21,32,34,45,47,7,9,20,22,33,35,46,48,8,10,21,23,34,36,47,49,9,11,22,24,35,37,48,50,10,12,23,25,36,38,49,51,11,13,24,26,37,39,50,52,1,12,14,25,27,38,40,51,2,13,15,26,28,39,41,52,1,3,14,16,27,29,40,42,2,4,15,17,28,30,41,43,3,5,16,18,29,31,42,44,4,6,17,19,30,32,43,45,5,7,18,20,31,33,44,46,6,8,19,21,32,34,45,47,7,9,20,22,33,35,46,48,8,10,21,23,34,36,47,49,9,11,22,24,35,37,48,50,10,12,23,25,36,38,49,51,11,13,24,26,37,39,50,52,1,12,14,25,27,38,40,51];
array [1..416] of int: X_INTRODUCED_232_ = [1,1,1,1,1,1,1,1,2,2,2,2,2,2,2,2,3,3,3,3,3,3,3,3,4,4,4,4,4,4,4,4,5,5,5,5,5,5,5,5,6,6,6,6,6,6,6,6,7,7,7,7,7,7,7,7,8,8,8,8,8,8,8,8,9,9,9,9,9,9,9,9,10,10,10,10,10,10,10,10,11,11,11,11,11,11,11,11,12,12,12,12,12,12,12,12,13,13,13,13,13,13,13,13,14,14,14,14,14,14,14,14,15,15,15,15,15,15,15,15,16,16,16,16,16,16,16,16,17,17,17,17,17,17,17,17,18,18,18,18,18,18,18,18,19,19,19,19,19,19,19,19,20,20,20,20,20,20,20,20,21,21,21,21,21,21,21,21,22,22,22,22,22,22,22,22,23,23,23,23,23,23,23,23,24,24,24,24,24,24,24,24,25,25,25,25,25,25,25,25,26,26,26,26,26,26,26,26,27,27,27,27,27,27,27,27,28,28,28,28,28,28,28,28,29,29,29,29,29,29,29,29,30,30,30,30,30,30,30,30,31,31,31,31,31,31,31,31,32,32,32,32,32,32,32,32,33,33,33,33,33,33,33,33,34,34,34,34,34,34,34,34,35,35,35,35,35,35,35,35,36,36,36,36,36,36,36,36,37,37,37,37,37,37,37,37,38,38,38,38,38,38,38,38,39,39,39,39,39,39,39,39,40,40,40,40,40,40,40,40,41,41,41,41,41,41,41,41,42,42,42,42,42,42,42,42,43,43,43,43,43,43,43,43,44,44,44,44,44,44,44,44,45,45,45,45,45,45,45,45,46,46,46,46,46,46,46,46,47,47,47,47,47,47,47,47,48,48,48,48,48,48,48,48,49,49,49,49,49,49,49,49,50,50,50,50,50,50,50,50,51,51,51,51,51,51,51,51,52,52,52,52,52,52,52,52];
array [1..416] of int: X_INTRODUCED_234_ = [2,13,15,26,28,39,41,52,1,3,14,16,27,29,40,42,2,4,15,17,28,30,41,43,3,5,16,18,29,31,42,44,4,6,17,19,30,32,43,45,5,7,18,20,31,33,44,46,6,8,19,21,32,34,45,47,7,9,20,22,33,35,46,48,8,10,21,23,34,36,47,49,9,11,22,24,35,37,48,50,10,12,23,25,36,38,49,51,11,13,24,26,37,39,50,52,1,12,14,25,27,38,40,51,2,13,15,26,28,39,41,52,1,3,14,16,27,29,40,42,2,4,15,17,28,30,41,43,3,5,16,18,29,31,42,44,4,6,17,19,30,32,43,45,5,7,18,20,31,33,44,46,6,8,19,21,32,34,45,47,7,9,20,22,33,35,46,48,8,10,21,23,34,36,47,49,9,11,22,24,35,37,48,50,10,12,23,25,36,38,49,51,11,13,24,26,37,39,50,52,1,12,14,25,27,38,40,51,2,13,15,26,28,39,41,52,1,3,14,16,27,29,40,42,2,4,15,17,28,30,41,43,3,5,16,18,29,31,42,44,4,6,17,19,30,32,43,45,5,7,18,20,31,33,44,46,6,8,19,21,32,34,45,47,7,9,20,22,33,35,46,48,8,10,21,23,34,36,47,49,9,11,22,24,35,37,48,50,10,12,23,25,36,38,49,51,11,13,24,26,37,39,50,52,1,12,14,25,27,38,40,51,2,13,15,26,28,39,41,52,1,3,14,16,27,29,40,42,2,4,15,17,28,30,41,43,3,5,16,18,29,31,42,44,4,6,17,19,30,32,43,45,5,7,18,20,31,33,44,46,6,8,19,21,32,34,45,47,7,9,20,22,33,35,46,48,8,10,21,23,34,36,47,49,9,11,22,24,35,37,48,50,10,12,23,25,36,38,49,51,11,13,24,26,37,39,50,52,1,12,14,25,27,38,40,51];
array [1..416] of int: X_INTRODUCED_263_ = [1,1,1,1,1,1,1,1,2,2,2,2,2,2,2,2,3,3,3,3,3,3,3,3,4,4,4,4,4,4,4,4,5,5,5,5,5,5,5,5,6,6,6,6,6,6,6,6,7,7,7,7,7,7,7,7,8,8,8,8,8,8,8,8,9,9,9,9,9,9,9,9,10,10,10,10,10,10,10,10,11,11,11,11,11,11,11,11,12,12,12,12,12,12,12,12,13,13,13,13,13,13,13,13,14,14,14,14,14,14,14,14,15,15,15,15,15,15,15,15,16,16,16,16,16,16,16,16,17,17,17,17,17,17,17,17,18,18,18,18,18,18,18,18,19,19,19,19,19,19,19,19,20,20,20,20,20,20,20,20,21,21,21,21,21,21,21,21,22,22,22,22,22,22,22,22,23,23,23,23,23,23,23,23,24,24,24,24,24,24,24,24,25,25,25,25,25,25,25,25,26,26,26,26,26,26,26,26,27,27,27,27,27,27,27,27,28,28,28,28,28,28,28,28,29,29,29,29,29,29,29,29,30,30,30,30,30,30,30,30,31,31,31,31,31,31,31,31,32,32,32,32,32,32,32,32,33,33,33,33,33,33,33,33,34,34,34,34,34,34,34,34,35,35,35,35,35,35,35,35,36,36,36,36,36,36,36,36,37,37,37,37,37,37,37,37,38,38,38,38,38,38,38,38,39,39,39,39,39,39,39,39,40,40,40,40,40,40,40,40,41,41,41,41,41,41,41,41,42,42,42,42,42,42,42,42,43,43,43,43,43,43,43,43,44,44,44,44,44,44,44,44,45,45,45,45,45,45,45,45,46,46,46,46,46,46,46,46,47,47,47,47,47,47,47,47,48,48,48,48,48,48,48,48,49,49,49,49,49,49,49,49,50,50,50,50,50,50,50,50,51,51,51,51,51,51,51,51,52,52,52,52,52,52,52,52];
array [1..416] of int: X_INTRODUCED_265_ = [2,13,15,26,28,39,41,52,1,3,14,16,27,29,40,42,2,4,15,17,28,30,41,43,3,5,16,18,29,31,42,44,4,6,17,19,30,32,43,45,5,7,18,20,31,33,44,46,6,8,19,21,32,34,45,47,7,9,20,22,33,35,46,48,8,10,21,23,34,36,47,49,9,11,22,24,35,37,48,50,10,12,23,25,36,38,49,51,11,13,24,26,37,39,50,52,1,12,14,25,27,38,40,51,2,13,15,26,28,39,41,52,1,3,14,16,27,29,40,42,2,4,15,17,28,30,41,43,3,5,16,18,29,31,42,44,4,6,17,19,30,32,43,45,5,7,18,20,31,33,44,46,6,8,19,21,32,34,45,47,7,9,20,22,33,35,46,48,8,10,21,23,34,36,47,49,9,11,22,24,35,37,48,50,10,12,23,25,36,38,49,51,11,13,24,26,37,39,50,52,1,12,14,25,27,38,40,51,2,13,15,26,28,39,41,52,1,3,14,16,27,29,40,42,2,4,15,17,28,30,41,43,3,5,16,18,29,31,42,44,4,6,17,19,30,32,43,45,5,7,18,20,31,33,44,46,6,8,19,21,32,34,45,47,7,9,20,22,33,35,46,48,8,10,21,23,34,36,47,49,9,11,22,24,35,37,48,50,10,12,23,25,36,38,49,51,11,13,24,26,37,39,50,52,1,12,14,25,27,38,40,51,2,13,15,26,28,39,41,52,1,3,14,16,27,29,40,42,2,4,15,17,28,30,41,43,3,5,16,18,29,31,42,44,4,6,17,19,30,32,43,45,5,7,18,20,31,33,44,46,6,8,19,21,32,34,45,47,7,9,20,22,33,35,46,48,8,10,21,23,34,36,47,49,9,11,22,24,35,37,48,50,10,12,23,25,36,38,49,51,11,13,24,26,37,39,50,52,1,12,14,25,27,38,40,51];
array [1..2] of int: X_INTRODUCED_423_ = [1,-1];
var 1..1: X_INTRODUCED_2_;
var 1..52: X_INTRODUCED_3_:: is_defined_var;
var 1..52: X_INTRODUCED_4_:: is_defined_var;
var 1..52: X_INTRODUCED_5_:: is_defined_var;
var 1..52: X_INTRODUCED_6_:: is_defined_var;
var 1..52: X_INTRODUCED_7_:: is_defined_var;
var 1..52: X_INTRODUCED_8_:: is_defined_var;
var 1..52: X_INTRODUCED_9_:: is_defined_var;
var 1..52: X_INTRODUCED_10_:: is_defined_var;
var 1..52: X_INTRODUCED_11_:: is_defined_var;
var 1..52: X_INTRODUCED_12_:: is_defined_var;
var 1..52: X_INTRODUCED_13_:: is_defined_var;
var 1..52: X_INTRODUCED_14_:: is_defined_var;
var 1..52: X_INTRODUCED_15_:: is_defined_var;
var 1..52: X_INTRODUCED_16_:: is_defined_var;
var 1..52: X_INTRODUCED_17_:: is_defined_var;
var 1..52: X_INTRODUCED_18_:: is_defined_var;
var 1..52: X_INTRODUCED_19_:: is_defined_var;
var 1..52: X_INTRODUCED_20_:: is_defined_var;
var 1..52: X_INTRODUCED_21_:: is_defined_var;
var 1..52: X_INTRODUCED_22_:: is_defined_var;
var 1..52: X_INTRODUCED_23_:: is_defined_var;
var 1..52: X_INTRODUCED_24_:: is_defined_var;
var 1..52: X_INTRODUCED_25_:: is_defined_var;
var 1..52: X_INTRODUCED_26_:: is_defined_var;
var 1..52: X_INTRODUCED_27_:: is_defined_var;
var 1..52: X_INTRODUCED_28_:: is_defined_var;
var 1..52: X_INTRODUCED_29_:: is_defined_var;
var 1..52: X_INTRODUCED_30_:: is_defined_var;
var 1..52: X_INTRODUCED_31_:: is_defined_var;
var 1..52: X_INTRODUCED_32_:: is_defined_var;
var 1..52: X_INTRODUCED_33_:: is_defined_var;
var 1..52: X_INTRODUCED_34_:: is_defined_var;
var 1..52: X_INTRODUCED_35_:: is_defined_var;
var 1..52: X_INTRODUCED_36_:: is_defined_var;
var 1..52: X_INTRODUCED_37_:: is_defined_var;
var 1..52: X_INTRODUCED_38_:: is_defined_var;
var 1..52: X_INTRODUCED_39_:: is_defined_var;
var 1..52: X_INTRODUCED_40_:: is_defined_var;
var 1..52: X_INTRODUCED_41_:: is_defined_var;
var 1..52: X_INTRODUCED_42_:: is_defined_var;
var 1..52: X_INTRODUCED_43_:: is_defined_var;
var 1..52: X_INTRODUCED_44_:: is_defined_var;
var 1..52: X_INTRODUCED_45_:: is_defined_var;
var 1..52: X_INTRODUCED_46_:: is_defined_var;
var 1..52: X_INTRODUCED_47_:: is_defined_var;
var 1..52: X_INTRODUCED_48_:: is_defined_var;
var 1..52: X_INTRODUCED_49_:: is_defined_var;
var 1..52: X_INTRODUCED_50_:: is_defined_var;
var 1..52: X_INTRODUCED_51_:: is_defined_var;
var 1..52: X_INTRODUCED_52_:: is_defined_var;
var 1..52: X_INTRODUCED_53_:: is_defined_var;
var 1..52: X_INTRODUCED_54_;
var 1..52: X_INTRODUCED_55_;
var 1..52: X_INTRODUCED_56_;
var 1..52: X_INTRODUCED_57_;
var 1..52: X_INTRODUCED_58_;
var 1..52: X_INTRODUCED_59_;
var 1..52: X_INTRODUCED_60_;
var 1..52: X_INTRODUCED_61_;
var 1..52: X_INTRODUCED_62_;
var 1..52: X_INTRODUCED_63_;
var 1..52: X_INTRODUCED_64_;
var 1..52: X_INTRODUCED_65_;
var 1..52: X_INTRODUCED_66_;
var 1..52: X_INTRODUCED_67_;
var 1..52: X_INTRODUCED_68_;
var 1..52: X_INTRODUCED_69_;
var 1..52: X_INTRODUCED_70_;
var 1..52: X_INTRODUCED_71_;
var 1..52: X_INTRODUCED_72_;
var 1..52: X_INTRODUCED_73_;
var 1..52: X_INTRODUCED_74_;
var 1..52: X_INTRODUCED_75_;
var 1..52: X_INTRODUCED_76_;
var 1..52: X_INTRODUCED_77_;
var 1..52: X_INTRODUCED_78_;
var 1..52: X_INTRODUCED_79_;
var 1..52: X_INTRODUCED_80_;
var 1..52: X_INTRODUCED_81_;
var 1..52: X_INTRODUCED_82_;
var 1..52: X_INTRODUCED_83_;
var 1..52: X_INTRODUCED_84_;
var 1..52: X_INTRODUCED_85_;
var 1..52: X_INTRODUCED_86_;
var 1..52: X_INTRODUCED_87_;
var 1..52: X_INTRODUCED_88_;
var 1..52: X_INTRODUCED_89_;
var 1..52: X_INTRODUCED_90_;
var 1..52: X_INTRODUCED_91_;
var 1..52: X_INTRODUCED_92_;
var 1..52: X_INTRODUCED_93_;
var 1..52: X_INTRODUCED_94_;
var 1..52: X_INTRODUCED_95_;
var 1..52: X_INTRODUCED_96_;
var 1..52: X_INTRODUCED_97_;
var 1..52: X_INTRODUCED_98_;
var 1..52: X_INTRODUCED_99_;
var 1..52: X_INTRODUCED_100_;
var 1..52: X_INTRODUCED_101_;
var 1..52: X_INTRODUCED_102_;
var 1..52: X_INTRODUCED_103_;
var 1..52: X_INTRODUCED_104_;
var 1..52: X_INTRODUCED_105_;
var 1..416: X_INTRODUCED_107_ ::var_is_introduced ;
var 1..416: X_INTRODUCED_114_ ::var_is_introduced ;
var 1..416: X_INTRODUCED_118_ ::var_is_introduced ;
var 1..416: X_INTRODUCED_122_ ::var_is_introduced ;
var 1..416: X_INTRODUCED_126_ ::var_is_introduced ;
var 1..416: X_INTRODUCED_130_ ::var_is_introduced ;
var 1..416: X_INTRODUCED_134_ ::var_is_introduced ;
var 1..416: X_INTRODUCED_138_ ::var_is_introduced ;
var 1..416: X_INTRODUCED_142_ ::var_is_introduced ;
var 1..416: X_INTRODUCED_146_ ::var_is_introduced ;
var 1..416: X_INTRODUCED_150_ ::var_is_introduced ;
var 1..416: X_INTRODUCED_154_ ::var_is_introduced ;
var 1..416: X_INTRODUCED_158_ ::var_is_introduced ;
var 1..416: X_INTRODUCED_162_ ::var_is_introduced ;
var 1..416: X_INTRODUCED_166_ ::var_is_introduced ;
var 1..416: X_INTRODUCED_170_ ::var_is_introduced ;
var 1..416: X_INTRODUCED_174_ ::var_is_introduced ;
var 1..416: X_INTRODUCED_178_ ::var_is_introduced ;
var 1..416: X_INTRODUCED_182_ ::var_is_introduced ;
var 1..416: X_INTRODUCED_186_ ::var_is_introduced ;
var 1..416: X_INTRODUCED_190_ ::var_is_introduced ;
var 1..416: X_INTRODUCED_194_ ::var_is_introduced ;
var 1..416: X_INTRODUCED_198_ ::var_is_introduced ;
var 1..416: X_INTRODUCED_202_ ::var_is_introduced ;
var 1..416: X_INTRODUCED_206_ ::var_is_introduced ;
var 1..416: X_INTRODUCED_210_ ::var_is_introduced ;
var 1..416: X_INTRODUCED_214_ ::var_is_introduced ;
var 1..416: X_INTRODUCED_218_ ::var_is_introduced ;
var 1..416: X_INTRODUCED_222_ ::var_is_introduced ;
var 1..416: X_INTRODUCED_226_ ::var_is_introduced ;
var 1..416: X_INTRODUCED_230_ ::var_is_introduced ;
var 1..416: X_INTRODUCED_237_ ::var_is_introduced ;
var 1..416: X_INTRODUCED_241_ ::var_is_introduced ;
var 1..416: X_INTRODUCED_245_ ::var_is_introduced ;
var 1..416: X_INTRODUCED_249_ ::var_is_introduced ;
var 1..416: X_INTRODUCED_253_ ::var_is_introduced ;
var 1..416: X_INTRODUCED_257_ ::var_is_introduced ;
var 1..416: X_INTRODUCED_261_ ::var_is_introduced ;
var 1..416: X_INTRODUCED_268_ ::var_is_introduced ;
var 1..416: X_INTRODUCED_272_ ::var_is_introduced ;
var 1..416: X_INTRODUCED_276_ ::var_is_introduced ;
var 1..416: X_INTRODUCED_280_ ::var_is_introduced ;
var 1..416: X_INTRODUCED_284_ ::var_is_introduced ;
var 1..416: X_INTRODUCED_288_ ::var_is_introduced ;
var 1..416: X_INTRODUCED_292_ ::var_is_introduced ;
var 1..416: X_INTRODUCED_296_ ::var_is_introduced ;
var 1..416: X_INTRODUCED_300_ ::var_is_introduced ;
var 1..416: X_INTRODUCED_304_ ::var_is_introduced ;
var 1..416: X_INTRODUCED_308_ ::var_is_introduced ;
var 1..416: X_INTRODUCED_312_ ::var_is_introduced ;
var 1..416: X_INTRODUCED_316_ ::var_is_introduced ;
array [1..52] of var int: x:: output_array([1..52]) = [1,X_INTRODUCED_3_,X_INTRODUCED_4_,X_INTRODUCED_5_,X_INTRODUCED_6_,X_INTRODUCED_7_,X_INTRODUCED_8_,X_INTRODUCED_9_,X_INTRODUCED_10_,X_INTRODUCED_11_,X_INTRODUCED_12_,X_INTRODUCED_13_,X_INTRODUCED_14_,X_INTRODUCED_15_,X_INTRODUCED_16_,X_INTRODUCED_17_,X_INTRODUCED_18_,X_INTRODUCED_19_,X_INTRODUCED_20_,X_INTRODUCED_21_,X_INTRODUCED_22_,X_INTRODUCED_23_,X_INTRODUCED_24_,X_INTRODUCED_25_,X_INTRODUCED_26_,X_INTRODUCED_27_,X_INTRODUCED_28_,X_INTRODUCED_29_,X_INTRODUCED_30_,X_INTRODUCED_31_,X_INTRODUCED_32_,X_INTRODUCED_33_,X_INTRODUCED_34_,X_INTRODUCED_35_,X_INTRODUCED_36_,X_INTRODUCED_37_,X_INTRODUCED_38_,X_INTRODUCED_39_,X_INTRODUCED_40_,X_INTRODUCED_41_,X_INTRODUCED_42_,X_INTRODUCED_43_,X_INTRODUCED_44_,X_INTRODUCED_45_,X_INTRODUCED_46_,X_INTRODUCED_47_,X_INTRODUCED_48_,X_INTRODUCED_49_,X_INTRODUCED_50_,X_INTRODUCED_51_,X_INTRODUCED_52_,X_INTRODUCED_53_];
array [1..52] of var int: y = [X_INTRODUCED_54_,X_INTRODUCED_55_,X_INTRODUCED_56_,X_INTRODUCED_57_,X_INTRODUCED_58_,X_INTRODUCED_59_,X_INTRODUCED_60_,X_INTRODUCED_61_,X_INTRODUCED_62_,X_INTRODUCED_63_,X_INTRODUCED_64_,X_INTRODUCED_65_,X_INTRODUCED_66_,X_INTRODUCED_67_,X_INTRODUCED_68_,X_INTRODUCED_69_,X_INTRODUCED_70_,X_INTRODUCED_71_,X_INTRODUCED_72_,X_INTRODUCED_73_,X_INTRODUCED_74_,X_INTRODUCED_75_,X_INTRODUCED_76_,X_INTRODUCED_77_,X_INTRODUCED_78_,X_INTRODUCED_79_,X_INTRODUCED_80_,X_INTRODUCED_81_,X_INTRODUCED_82_,X_INTRODUCED_83_,X_INTRODUCED_84_,X_INTRODUCED_85_,X_INTRODUCED_86_,X_INTRODUCED_87_,X_INTRODUCED_88_,X_INTRODUCED_89_,X_INTRODUCED_90_,X_INTRODUCED_91_,X_INTRODUCED_92_,X_INTRODUCED_93_,X_INTRODUCED_94_,X_INTRODUCED_95_,X_INTRODUCED_96_,X_INTRODUCED_97_,X_INTRODUCED_98_,X_INTRODUCED_99_,X_INTRODUCED_100_,X_INTRODUCED_101_,X_INTRODUCED_102_,X_INTRODUCED_103_,X_INTRODUCED_104_,X_INTRODUCED_105_];
constraint array_int_element_offset(X_INTRODUCED_107_,X_INTRODUCED_109_,1,1);
constraint array_int_element_offset(X_INTRODUCED_107_,X_INTRODUCED_111_,X_INTRODUCED_3_,1);
constraint array_int_element_offset(X_INTRODUCED_114_,X_INTRODUCED_109_,X_INTRODUCED_3_,1);
constraint array_int_element_offset(X_INTRODUCED_114_,X_INTRODUCED_111_,X_INTRODUCED_4_,1);
constraint array_int_element_offset(X_INTRODUCED_118_,X_INTRODUCED_109_,X_INTRODUCED_4_,1);
constraint array_int_element_offset(X_INTRODUCED_118_,X_INTRODUCED_111_,X_INTRODUCED_5_,1);
constraint array_int_element_offset(X_INTRODUCED_122_,X_INTRODUCED_109_,X_INTRODUCED_5_,1);
constraint array_int_element_offset(X_INTRODUCED_122_,X_INTRODUCED_111_,X_INTRODUCED_6_,1);
constraint array_int_element_offset(X_INTRODUCED_126_,X_INTRODUCED_109_,X_INTRODUCED_6_,1);
constraint array_int_element_offset(X_INTRODUCED_126_,X_INTRODUCED_111_,X_INTRODUCED_7_,1);
constraint array_int_element_offset(X_INTRODUCED_130_,X_INTRODUCED_109_,X_INTRODUCED_7_,1);
constraint array_int_element_offset(X_INTRODUCED_130_,X_INTRODUCED_111_,X_INTRODUCED_8_,1);
constraint array_int_element_offset(X_INTRODUCED_134_,X_INTRODUCED_109_,X_INTRODUCED_8_,1);
constraint array_int_element_offset(X_INTRODUCED_134_,X_INTRODUCED_111_,X_INTRODUCED_9_,1);
constraint array_int_element_offset(X_INTRODUCED_138_,X_INTRODUCED_109_,X_INTRODUCED_9_,1);
constraint array_int_element_offset(X_INTRODUCED_138_,X_INTRODUCED_111_,X_INTRODUCED_10_,1);
constraint array_int_element_offset(X_INTRODUCED_142_,X_INTRODUCED_109_,X_INTRODUCED_10_,1);
constraint array_int_element_offset(X_INTRODUCED_142_,X_INTRODUCED_111_,X_INTRODUCED_11_,1);
constraint array_int_element_offset(X_INTRODUCED_146_,X_INTRODUCED_109_,X_INTRODUCED_11_,1);
constraint array_int_element_offset(X_INTRODUCED_146_,X_INTRODUCED_111_,X_INTRODUCED_12_,1);
constraint array_int_element_offset(X_INTRODUCED_150_,X_INTRODUCED_109_,X_INTRODUCED_12_,1);
constraint array_int_element_offset(X_INTRODUCED_150_,X_INTRODUCED_111_,X_INTRODUCED_13_,1);
constraint array_int_element_offset(X_INTRODUCED_154_,X_INTRODUCED_109_,X_INTRODUCED_13_,1);
constraint array_int_element_offset(X_INTRODUCED_154_,X_INTRODUCED_111_,X_INTRODUCED_14_,1);
constraint array_int_element_offset(X_INTRODUCED_158_,X_INTRODUCED_109_,X_INTRODUCED_14_,1);
constraint array_int_element_offset(X_INTRODUCED_158_,X_INTRODUCED_111_,X_INTRODUCED_15_,1);
constraint array_int_element_offset(X_INTRODUCED_162_,X_INTRODUCED_109_,X_INTRODUCED_15_,1);
constraint array_int_element_offset(X_INTRODUCED_162_,X_INTRODUCED_111_,X_INTRODUCED_16_,1);
constraint array_int_element_offset(X_INTRODUCED_166_,X_INTRODUCED_109_,X_INTRODUCED_16_,1);
constraint array_int_element_offset(X_INTRODUCED_166_,X_INTRODUCED_111_,X_INTRODUCED_17_,1);
constraint array_int_element_offset(X_INTRODUCED_170_,X_INTRODUCED_109_,X_INTRODUCED_17_,1);
constraint array_int_element_offset(X_INTRODUCED_170_,X_INTRODUCED_111_,X_INTRODUCED_18_,1);
constraint array_int_element_offset(X_INTRODUCED_174_,X_INTRODUCED_109_,X_INTRODUCED_18_,1);
constraint array_int_element_offset(X_INTRODUCED_174_,X_INTRODUCED_111_,X_INTRODUCED_19_,1);
constraint array_int_element_offset(X_INTRODUCED_178_,X_INTRODUCED_109_,X_INTRODUCED_19_,1);
constraint array_int_element_offset(X_INTRODUCED_178_,X_INTRODUCED_111_,X_INTRODUCED_20_,1);
constraint array_int_element_offset(X_INTRODUCED_182_,X_INTRODUCED_109_,X_INTRODUCED_20_,1);
constraint array_int_element_offset(X_INTRODUCED_182_,X_INTRODUCED_111_,X_INTRODUCED_21_,1);
constraint array_int_element_offset(X_INTRODUCED_186_,X_INTRODUCED_109_,X_INTRODUCED_21_,1);
constraint array_int_element_offset(X_INTRODUCED_186_,X_INTRODUCED_111_,X_INTRODUCED_22_,1);
constraint array_int_element_offset(X_INTRODUCED_190_,X_INTRODUCED_109_,X_INTRODUCED_22_,1);
constraint array_int_element_offset(X_INTRODUCED_190_,X_INTRODUCED_111_,X_INTRODUCED_23_,1);
constraint array_int_element_offset(X_INTRODUCED_194_,X_INTRODUCED_109_,X_INTRODUCED_23_,1);
constraint array_int_element_offset(X_INTRODUCED_194_,X_INTRODUCED_111_,X_INTRODUCED_24_,1);
constraint array_int_element_offset(X_INTRODUCED_198_,X_INTRODUCED_109_,X_INTRODUCED_24_,1);
constraint array_int_element_offset(X_INTRODUCED_198_,X_INTRODUCED_111_,X_INTRODUCED_25_,1);
constraint array_int_element_offset(X_INTRODUCED_202_,X_INTRODUCED_109_,X_INTRODUCED_25_,1);
constraint array_int_element_offset(X_INTRODUCED_202_,X_INTRODUCED_111_,X_INTRODUCED_26_,1);
constraint array_int_element_offset(X_INTRODUCED_206_,X_INTRODUCED_109_,X_INTRODUCED_26_,1);
constraint array_int_element_offset(X_INTRODUCED_206_,X_INTRODUCED_111_,X_INTRODUCED_27_,1);
constraint array_int_element_offset(X_INTRODUCED_210_,X_INTRODUCED_109_,X_INTRODUCED_27_,1);
constraint array_int_element_offset(X_INTRODUCED_210_,X_INTRODUCED_111_,X_INTRODUCED_28_,1);
constraint array_int_element_offset(X_INTRODUCED_214_,X_INTRODUCED_109_,X_INTRODUCED_28_,1);
constraint array_int_element_offset(X_INTRODUCED_214_,X_INTRODUCED_111_,X_INTRODUCED_29_,1);
constraint array_int_element_offset(X_INTRODUCED_218_,X_INTRODUCED_109_,X_INTRODUCED_29_,1);
constraint array_int_element_offset(X_INTRODUCED_218_,X_INTRODUCED_111_,X_INTRODUCED_30_,1);
constraint array_int_element_offset(X_INTRODUCED_222_,X_INTRODUCED_109_,X_INTRODUCED_30_,1);
constraint array_int_element_offset(X_INTRODUCED_222_,X_INTRODUCED_111_,X_INTRODUCED_31_,1);
constraint array_int_element_offset(X_INTRODUCED_226_,X_INTRODUCED_109_,X_INTRODUCED_31_,1);
constraint array_int_element_offset(X_INTRODUCED_226_,X_INTRODUCED_111_,X_INTRODUCED_32_,1);
constraint array_int_element_offset(X_INTRODUCED_230_,X_INTRODUCED_232_,X_INTRODUCED_32_,1);
constraint array_int_element_offset(X_INTRODUCED_230_,X_INTRODUCED_234_,X_INTRODUCED_33_,1);
constraint array_int_element_offset(X_INTRODUCED_237_,X_INTRODUCED_232_,X_INTRODUCED_33_,1);
constraint array_int_element_offset(X_INTRODUCED_237_,X_INTRODUCED_234_,X_INTRODUCED_34_,1);
constraint array_int_element_offset(X_INTRODUCED_241_,X_INTRODUCED_232_,X_INTRODUCED_34_,1);
constraint array_int_element_offset(X_INTRODUCED_241_,X_INTRODUCED_234_,X_INTRODUCED_35_,1);
constraint array_int_element_offset(X_INTRODUCED_245_,X_INTRODUCED_232_,X_INTRODUCED_35_,1);
constraint array_int_element_offset(X_INTRODUCED_245_,X_INTRODUCED_234_,X_INTRODUCED_36_,1);
constraint array_int_element_offset(X_INTRODUCED_249_,X_INTRODUCED_232_,X_INTRODUCED_36_,1);
constraint array_int_element_offset(X_INTRODUCED_249_,X_INTRODUCED_234_,X_INTRODUCED_37_,1);
constraint array_int_element_offset(X_INTRODUCED_253_,X_INTRODUCED_232_,X_INTRODUCED_37_,1);
constraint array_int_element_offset(X_INTRODUCED_253_,X_INTRODUCED_234_,X_INTRODUCED_38_,1);
constraint array_int_element_offset(X_INTRODUCED_257_,X_INTRODUCED_232_,X_INTRODUCED_38_,1);
constraint array_int_element_offset(X_INTRODUCED_257_,X_INTRODUCED_234_,X_INTRODUCED_39_,1);
constraint array_int_element_offset(X_INTRODUCED_261_,X_INTRODUCED_263_,X_INTRODUCED_39_,1);
constraint array_int_element_offset(X_INTRODUCED_261_,X_INTRODUCED_265_,X_INTRODUCED_40_,1);
constraint array_int_element_offset(X_INTRODUCED_268_,X_INTRODUCED_263_,X_INTRODUCED_40_,1);
constraint array_int_element_offset(X_INTRODUCED_268_,X_INTRODUCED_265_,X_INTRODUCED_41_,1);
constraint array_int_element_offset(X_INTRODUCED_272_,X_INTRODUCED_263_,X_INTRODUCED_41_,1);
constraint array_int_element_offset(X_INTRODUCED_272_,X_INTRODUCED_265_,X_INTRODUCED_42_,1);
constraint array_int_element_offset(X_INTRODUCED_276_,X_INTRODUCED_263_,X_INTRODUCED_42_,1);
constraint array_int_element_offset(X_INTRODUCED_276_,X_INTRODUCED_265_,X_INTRODUCED_43_,1);
constraint array_int_element_offset(X_INTRODUCED_280_,X_INTRODUCED_263_,X_INTRODUCED_43_,1);
constraint array_int_element_offset(X_INTRODUCED_280_,X_INTRODUCED_265_,X_INTRODUCED_44_,1);
constraint array_int_element_offset(X_INTRODUCED_284_,X_INTRODUCED_263_,X_INTRODUCED_44_,1);
constraint array_int_element_offset(X_INTRODUCED_284_,X_INTRODUCED_265_,X_INTRODUCED_45_,1);
constraint array_int_element_offset(X_INTRODUCED_288_,X_INTRODUCED_263_,X_INTRODUCED_45_,1);
constraint array_int_element_offset(X_INTRODUCED_288_,X_INTRODUCED_265_,X_INTRODUCED_46_,1);
constraint array_int_element_offset(X_INTRODUCED_292_,X_INTRODUCED_263_,X_INTRODUCED_46_,1);
constraint array_int_element_offset(X_INTRODUCED_292_,X_INTRODUCED_265_,X_INTRODUCED_47_,1);
constraint array_int_element_offset(X_INTRODUCED_296_,X_INTRODUCED_263_,X_INTRODUCED_47_,1);
constraint array_int_element_offset(X_INTRODUCED_296_,X_INTRODUCED_265_,X_INTRODUCED_48_,1);
constraint array_int_element_offset(X_INTRODUCED_300_,X_INTRODUCED_263_,X_INTRODUCED_48_,1);
constraint array_int_element_offset(X_INTRODUCED_300_,X_INTRODUCED_265_,X_INTRODUCED_49_,1);
constraint array_int_element_offset(X_INTRODUCED_304_,X_INTRODUCED_263_,X_INTRODUCED_49_,1);
constraint array_int_element_offset(X_INTRODUCED_304_,X_INTRODUCED_265_,X_INTRODUCED_50_,1);
constraint array_int_element_offset(X_INTRODUCED_308_,X_INTRODUCED_263_,X_INTRODUCED_50_,1);
constraint array_int_element_offset(X_INTRODUCED_308_,X_INTRODUCED_265_,X_INTRODUCED_51_,1);
constraint array_int_element_offset(X_INTRODUCED_312_,X_INTRODUCED_263_,X_INTRODUCED_51_,1);
constraint array_int_element_offset(X_INTRODUCED_312_,X_INTRODUCED_265_,X_INTRODUCED_52_,1);
constraint array_int_element_offset(X_INTRODUCED_316_,X_INTRODUCED_263_,X_INTRODUCED_52_,1);
constraint array_int_element_offset(X_INTRODUCED_316_,X_INTRODUCED_265_,X_INTRODUCED_53_,1);
constraint array_var_int_element_offset(1,y,1,1):: domain;
constraint array_var_int_element_offset(X_INTRODUCED_3_,y,2,1):: domain;
constraint array_var_int_element_offset(X_INTRODUCED_4_,y,3,1):: domain;
constraint array_var_int_element_offset(X_INTRODUCED_5_,y,4,1):: domain;
constraint array_var_int_element_offset(X_INTRODUCED_6_,y,5,1):: domain;
constraint array_var_int_element_offset(X_INTRODUCED_7_,y,6,1):: domain;
constraint array_var_int_element_offset(X_INTRODUCED_8_,y,7,1):: domain;
constraint array_var_int_element_offset(X_INTRODUCED_9_,y,8,1):: domain;
constraint array_var_int_element_offset(X_INTRODUCED_10_,y,9,1):: domain;
constraint array_var_int_element_offset(X_INTRODUCED_11_,y,10,1):: domain;
constraint array_var_int_element_offset(X_INTRODUCED_12_,y,11,1):: domain;
constraint array_var_int_element_offset(X_INTRODUCED_13_,y,12,1):: domain;
constraint array_var_int_element_offset(X_INTRODUCED_14_,y,13,1):: domain;
constraint array_var_int_element_offset(X_INTRODUCED_15_,y,14,1):: domain;
constraint array_var_int_element_offset(X_INTRODUCED_16_,y,15,1):: domain;
constraint array_var_int_element_offset(X_INTRODUCED_17_,y,16,1):: domain;
constraint array_var_int_element_offset(X_INTRODUCED_18_,y,17,1):: domain;
constraint array_var_int_element_offset(X_INTRODUCED_19_,y,18,1):: domain;
constraint array_var_int_element_offset(X_INTRODUCED_20_,y,19,1):: domain;
constraint array_var_int_element_offset(X_INTRODUCED_21_,y,20,1):: domain;
constraint array_var_int_element_offset(X_INTRODUCED_22_,y,21,1):: domain;
constraint array_var_int_element_offset(X_INTRODUCED_23_,y,22,1):: domain;
constraint array_var_int_element_offset(X_INTRODUCED_24_,y,23,1):: domain;
constraint array_var_int_element_offset(X_INTRODUCED_25_,y,24,1):: domain;
constraint array_var_int_element_offset(X_INTRODUCED_26_,y,25,1):: domain;
constraint array_var_int_element_offset(X_INTRODUCED_27_,y,26,1):: domain;
constraint array_var_int_element_offset(X_INTRODUCED_28_,y,27,1):: domain;
constraint array_var_int_element_offset(X_INTRODUCED_29_,y,28,1):: domain;
constraint array_var_int_element_offset(X_INTRODUCED_30_,y,29,1):: domain;
constraint array_var_int_element_offset(X_INTRODUCED_31_,y,30,1):: domain;
constraint array_var_int_element_offset(X_INTRODUCED_32_,y,31,1):: domain;
constraint array_var_int_element_offset(X_INTRODUCED_33_,y,32,1):: domain;
constraint array_var_int_element_offset(X_INTRODUCED_34_,y,33,1):: domain;
constraint array_var_int_element_offset(X_INTRODUCED_35_,y,34,1):: domain;
constraint array_var_int_element_offset(X_INTRODUCED_36_,y,35,1):: domain;
constraint array_var_int_element_offset(X_INTRODUCED_37_,y,36,1):: domain;
constraint array_var_int_element_offset(X_INTRODUCED_38_,y,37,1):: domain;
constraint array_var_int_element_offset(X_INTRODUCED_39_,y,38,1):: domain;
constraint array_var_int_element_offset(X_INTRODUCED_40_,y,39,1):: domain;
constraint array_var_int_element_offset(X_INTRODUCED_41_,y,40,1):: domain;
constraint array_var_int_element_offset(X_INTRODUCED_42_,y,41,1):: domain;
constraint array_var_int_element_offset(X_INTRODUCED_43_,y,42,1):: domain;
constraint array_var_int_element_offset(X_INTRODUCED_44_,y,43,1):: domain;
constraint array_var_int_element_offset(X_INTRODUCED_45_,y,44,1):: domain;
constraint array_var_int_element_offset(X_INTRODUCED_46_,y,45,1):: domain;
constraint array_var_int_element_offset(X_INTRODUCED_47_,y,46,1):: domain;
constraint array_var_int_element_offset(X_INTRODUCED_48_,y,47,1):: domain;
constraint array_var_int_element_offset(X_INTRODUCED_49_,y,48,1):: domain;
constraint array_var_int_element_offset(X_INTRODUCED_50_,y,49,1):: domain;
constraint array_var_int_element_offset(X_INTRODUCED_51_,y,50,1):: domain;
constraint array_var_int_element_offset(X_INTRODUCED_52_,y,51,1):: domain;
constraint array_var_int_element_offset(X_INTRODUCED_53_,y,52,1):: domain;
constraint array_var_int_element_offset(X_INTRODUCED_54_,x,1,1):: domain;
constraint array_var_int_element_offset(X_INTRODUCED_55_,x,2,1):: domain;
constraint array_var_int_element_offset(X_INTRODUCED_56_,x,3,1):: domain;
constraint array_var_int_element_offset(X_INTRODUCED_57_,x,4,1):: domain;
constraint array_var_int_element_offset(X_INTRODUCED_58_,x,5,1):: domain;
constraint array_var_int_element_offset(X_INTRODUCED_59_,x,6,1):: domain;
constraint array_var_int_element_offset(X_INTRODUCED_60_,x,7,1):: domain;
constraint array_var_int_element_offset(X_INTRODUCED_61_,x,8,1):: domain;
constraint array_var_int_element_offset(X_INTRODUCED_62_,x,9,1):: domain;
constraint array_var_int_element_offset(X_INTRODUCED_63_,x,10,1):: domain;
constraint array_var_int_element_offset(X_INTRODUCED_64_,x,11,1):: domain;
constraint array_var_int_element_offset(X_INTRODUCED_65_,x,12,1):: domain;
constraint array_var_int_element_offset(X_INTRODUCED_66_,x,13,1):: domain;
constraint array_var_int_element_offset(X_INTRODUCED_67_,x,14,1):: domain;
constraint array_var_int_element_offset(X_INTRODUCED_68_,x,15,1):: domain;
constraint array_var_int_element_offset(X_INTRODUCED_69_,x,16,1):: domain;
constraint array_var_int_element_offset(X_INTRODUCED_70_,x,17,1):: domain;
constraint array_var_int_element_offset(X_INTRODUCED_71_,x,18,1):: domain;
constraint array_var_int_element_offset(X_INTRODUCED_72_,x,19,1):: domain;
constraint array_var_int_element_offset(X_INTRODUCED_73_,x,20,1):: domain;
constraint array_var_int_element_offset(X_INTRODUCED_74_,x,21,1):: domain;
constraint array_var_int_element_offset(X_INTRODUCED_75_,x,22,1):: domain;
constraint array_var_int_element_offset(X_INTRODUCED_76_,x,23,1):: domain;
constraint array_var_int_element_offset(X_INTRODUCED_77_,x,24,1):: domain;
constraint array_var_int_element_offset(X_INTRODUCED_78_,x,25,1):: domain;
constraint array_var_int_element_offset(X_INTRODUCED_79_,x,26,1):: domain;
constraint array_var_int_element_offset(X_INTRODUCED_80_,x,27,1):: domain;
constraint array_var_int_element_offset(X_INTRODUCED_81_,x,28,1):: domain;
constraint array_var_int_element_offset(X_INTRODUCED_82_,x,29,1):: domain;
constraint array_var_int_element_offset(X_INTRODUCED_83_,x,30,1):: domain;
constraint array_var_int_element_offset(X_INTRODUCED_84_,x,31,1):: domain;
constraint array_var_int_element_offset(X_INTRODUCED_85_,x,32,1):: domain;
constraint array_var_int_element_offset(X_INTRODUCED_86_,x,33,1):: domain;
constraint array_var_int_element_offset(X_INTRODUCED_87_,x,34,1):: domain;
constraint array_var_int_element_offset(X_INTRODUCED_88_,x,35,1):: domain;
constraint array_var_int_element_offset(X_INTRODUCED_89_,x,36,1):: domain;
constraint array_var_int_element_offset(X_INTRODUCED_90_,x,37,1):: domain;
constraint array_var_int_element_offset(X_INTRODUCED_91_,x,38,1):: domain;
constraint array_var_int_element_offset(X_INTRODUCED_92_,x,39,1):: domain;
constraint array_var_int_element_offset(X_INTRODUCED_93_,x,40,1):: domain;
constraint array_var_int_element_offset(X_INTRODUCED_94_,x,41,1):: domain;
constraint array_var_int_element_offset(X_INTRODUCED_95_,x,42,1):: domain;
constraint array_var_int_element_offset(X_INTRODUCED_96_,x,43,1):: domain;
constraint array_var_int_element_offset(X_INTRODUCED_97_,x,44,1):: domain;
constraint array_var_int_element_offset(X_INTRODUCED_98_,x,45,1):: domain;
constraint array_var_int_element_offset(X_INTRODUCED_99_,x,46,1):: domain;
constraint array_var_int_element_offset(X_INTRODUCED_100_,x,47,1):: domain;
constraint array_var_int_element_offset(X_INTRODUCED_101_,x,48,1):: domain;
constraint array_var_int_element_offset(X_INTRODUCED_102_,x,49,1):: domain;
constraint array_var_int_element_offset(X_INTRODUCED_103_,x,50,1):: domain;
constraint array_var_int_element_offset(X_INTRODUCED_104_,x,51,1):: domain;
constraint array_var_int_element_offset(X_INTRODUCED_105_,x,52,1):: domain;
constraint int_lin_le(X_INTRODUCED_423_,[X_INTRODUCED_84_,X_INTRODUCED_68_],-1);
constraint int_lin_le(X_INTRODUCED_423_,[X_INTRODUCED_68_,X_INTRODUCED_75_],-1);
constraint int_lin_le(X_INTRODUCED_423_,[X_INTRODUCED_96_,X_INTRODUCED_88_],-1);
constraint int_lin_le(X_INTRODUCED_423_,[X_INTRODUCED_88_,X_INTRODUCED_73_],-1);
constraint int_lin_le(X_INTRODUCED_423_,[X_INTRODUCED_77_,X_INTRODUCED_62_],-1);
constraint int_lin_le(X_INTRODUCED_423_,[X_INTRODUCED_62_,X_INTRODUCED_101_],-1);
constraint int_lin_le(X_INTRODUCED_423_,[X_INTRODUCED_85_,X_INTRODUCED_78_],-1);
constraint int_lin_le(X_INTRODUCED_423_,[X_INTRODUCED_78_,X_INTRODUCED_65_],-1);
constraint int_lin_le(X_INTRODUCED_423_,[X_INTRODUCED_61_,X_INTRODUCED_105_],-1);
constraint int_lin_le(X_INTRODUCED_423_,[X_INTRODUCED_105_,X_INTRODUCED_80_],-1);
constraint int_lin_le(X_INTRODUCED_423_,[X_INTRODUCED_79_,X_INTRODUCED_97_],-1);
constraint int_lin_le(X_INTRODUCED_423_,[X_INTRODUCED_97_,X_INTRODUCED_91_],-1);
constraint int_lin_le(X_INTRODUCED_423_,[X_INTRODUCED_82_,X_INTRODUCED_94_],-1);
constraint int_lin_le(X_INTRODUCED_423_,[X_INTRODUCED_94_,X_INTRODUCED_89_],-1);
constraint int_lin_le(X_INTRODUCED_423_,[X_INTRODUCED_81_,X_INTRODUCED_76_],-1);
constraint int_lin_le(X_INTRODUCED_423_,[X_INTRODUCED_76_,X_INTRODUCED_63_],-1);
constraint int_lin_le(X_INTRODUCED_423_,[X_INTRODUCED_103_,X_INTRODUCED_60_],-1);
constraint int_lin_le(X_INTRODUCED_423_,[X_INTRODUCED_60_,X_INTRODUCED_55_],-1);
constraint int_lin_le(X_INTRODUCED_423_,[X_INTRODUCED_83_,X_INTRODUCED_93_],-1);
constraint int_lin_le(X_INTRODUCED_423_,[X_INTRODUCED_93_,X_INTRODUCED_92_],-1);
constraint int_lin_le(X_INTRODUCED_423_,[X_INTRODUCED_57_,X_INTRODUCED_66_],-1);
constraint int_lin_le(X_INTRODUCED_423_,[X_INTRODUCED_66_,X_INTRODUCED_86_],-1);
constraint int_lin_le(X_INTRODUCED_423_,[X_INTRODUCED_95_,X_INTRODUCED_98_],-1);
constraint int_lin_le(X_INTRODUCED_423_,[X_INTRODUCED_98_,X_INTRODUCED_69_],-1);
constraint int_lin_le(X_INTRODUCED_423_,[X_INTRODUCED_74_,X_INTRODUCED_70_],-1);
constraint int_lin_le(X_INTRODUCED_423_,[X_INTRODUCED_70_,X_INTRODUCED_99_],-1);
constraint int_lin_le(X_INTRODUCED_423_,[X_INTRODUCED_58_,X_INTRODUCED_71_],-1);
constraint int_lin_le(X_INTRODUCED_423_,[X_INTRODUCED_71_,X_INTRODUCED_67_],-1);
constraint int_lin_le(X_INTRODUCED_423_,[X_INTRODUCED_87_,X_INTRODUCED_64_],-1);
constraint int_lin_le(X_INTRODUCED_423_,[X_INTRODUCED_64_,X_INTRODUCED_90_],-1);
constraint int_lin_le(X_INTRODUCED_423_,[X_INTRODUCED_104_,X_INTRODUCED_56_],-1);
constraint int_lin_le(X_INTRODUCED_423_,[X_INTRODUCED_56_,X_INTRODUCED_72_],-1);
constraint int_lin_le(X_INTRODUCED_423_,[X_INTRODUCED_59_,X_INTRODUCED_102_],-1);
constraint int_lin_le(X_INTRODUCED_423_,[X_INTRODUCED_102_,X_INTRODUCED_100_],-1);
solve :: int_search(x,input_order,indomain_min,complete) satisfy;
